sat
(:max-memory          18.25
 :memory              17.69
 :num-allocs          11679302
 :rlimit-count        265518
 :sls-constraints     646
 :sls-ddfw-flips      141421.00
 :sls-ddfw-reinits    5
 :sls-ddfw-restarts   194
 :sls-ddfw-shifts     71511.00
 :sls.euf-conflict    646
 :solve-eqs-elim-vars 4
 :solve-eqs-steps     8
 :time                0.11
 :total-time          0.11)
